converted from raw with ene = -283.753853 
  1.0
 10.224764 0.000000 0.000000 
 0.000000 8.854905 0.000000 
 0.000000 0.000000 18.784091 
Cu Ni O 
80 0 0 
cartesian 
    0.000000   -0.026337   -0.011834 -0.000000 0.000245 -0.000137 
    0.000000   2.932514   2.080662 -0.000000 -0.000123 0.000009 
    1.278095   0.718608   2.080703 0.000000 -0.000051 -0.000454 
    1.278096   3.689545   4.174242 0.000000 -0.000007 0.000001 
    1.278095   2.187241   -0.011725 0.000001 0.000385 -0.000336 
    0.000000   1.475818   4.174241 0.000000 0.000003 0.000007 
    2.556191   -0.026337   -0.011834 0.000000 0.000245 -0.000138 
    2.556191   2.932514   2.080662 0.000000 -0.000123 0.000009 
    3.834287   0.718608   2.080703 -0.000000 -0.000051 -0.000454 
    3.834287   3.689545   4.174242 -0.000000 -0.000007 0.000001 
    3.834287   2.187241   -0.011725 -0.000000 0.000386 -0.000336 
    2.556191   1.475818   4.174241 -0.000000 0.000003 0.000006 
    5.112382   -0.026337   -0.011834 -0.000000 0.000245 -0.000137 
    5.112382   2.932514   2.080662 -0.000000 -0.000123 0.000009 
    6.390477   0.718608   2.080703 0.000000 -0.000051 -0.000454 
    6.390478   3.689545   4.174242 0.000000 -0.000007 0.000001 
    6.390477   2.187241   -0.011725 0.000000 0.000385 -0.000336 
    5.112382   1.475818   4.174241 0.000000 0.000003 0.000007 
    7.668573   -0.026337   -0.011834 0.000000 0.000245 -0.000138 
    7.668573   2.932514   2.080662 0.000000 -0.000123 0.000009 
    8.946669   0.718608   2.080703 -0.000000 -0.000051 -0.000454 
    8.946669   3.689545   4.174242 -0.000000 -0.000007 0.000001 
    8.946669   2.187241   -0.011725 -0.000001 0.000386 -0.000336 
    7.668573   1.475818   4.174241 -0.000000 0.000003 0.000007 
    0.000000   4.401115   -0.011835 -0.000000 0.000248 -0.000138 
    0.000000   7.359966   2.080663 -0.000000 -0.000120 0.000006 
    1.278095   5.146059   2.080703 0.000000 -0.000043 -0.000453 
    1.278096   8.116997   4.174242 0.000000 -0.000001 -0.000002 
    1.278095   6.614693   -0.011725 0.000001 0.000393 -0.000334 
    0.000000   5.903270   4.174242 -0.000000 0.000005 0.000000 
    2.556191   4.401115   -0.011835 0.000000 0.000248 -0.000138 
    2.556191   7.359966   2.080663 0.000000 -0.000120 0.000005 
    3.834287   5.146059   2.080703 -0.000000 -0.000043 -0.000454 
    3.834287   8.116997   4.174242 -0.000000 -0.000001 -0.000002 
    3.834287   6.614693   -0.011725 -0.000000 0.000394 -0.000334 
    2.556191   5.903270   4.174242 0.000000 0.000005 0.000000 
    5.112382   4.401115   -0.011835 -0.000000 0.000248 -0.000138 
    5.112382   7.359966   2.080663 -0.000000 -0.000120 0.000006 
    6.390477   5.146059   2.080703 0.000000 -0.000043 -0.000453 
    6.390478   8.116997   4.174242 0.000000 -0.000001 -0.000002 
    6.390477   6.614693   -0.011725 0.000000 0.000393 -0.000334 
    5.112382   5.903270   4.174242 0.000000 0.000005 0.000000 
    7.668573   4.401115   -0.011835 0.000000 0.000248 -0.000138 
    7.668573   7.359966   2.080663 0.000000 -0.000120 0.000005 
    8.946669   5.146059   2.080703 -0.000000 -0.000043 -0.000454 
    8.946669   8.116997   4.174242 -0.000000 -0.000001 -0.000002 
    8.946669   6.614693   -0.011725 -0.000001 0.000393 -0.000334 
    7.668573   5.903270   4.174242 -0.000000 0.000005 0.000001 
    0.000000   0.019120   6.267821 0.000000 0.000128 0.000001 
    0.000000   2.977973   8.360322 0.000000 -0.000252 0.000125 
    1.278096   0.764394   8.360210 0.000000 -0.000385 0.000330 
    1.278096   2.233029   6.267781 0.000000 0.000042 0.000460 
    2.556191   0.019120   6.267821 -0.000000 0.000128 0.000000 
    2.556191   2.977973   8.360322 -0.000001 -0.000253 0.000125 
    3.834287   0.764394   8.360210 -0.000000 -0.000385 0.000330 
    3.834287   2.233029   6.267781 -0.000000 0.000042 0.000460 
    5.112382   0.019120   6.267821 0.000000 0.000128 0.000000 
    5.112382   2.977973   8.360322 0.000001 -0.000252 0.000125 
    6.390478   0.764394   8.360210 0.000000 -0.000385 0.000330 
    6.390478   2.233029   6.267781 0.000000 0.000042 0.000460 
    7.668573   0.019120   6.267821 -0.000000 0.000128 0.000000 
    7.668573   2.977973   8.360322 -0.000000 -0.000253 0.000125 
    8.946669   0.764394   8.360210 -0.000000 -0.000385 0.000330 
    8.946669   2.233029   6.267781 -0.000000 0.000042 0.000460 
    0.000000   4.446574   6.267821 0.000000 0.000119 -0.000001 
    0.000000   7.405425   8.360322 0.000000 -0.000245 0.000125 
    1.278096   5.191847   8.360210 0.000000 -0.000388 0.000334 
    1.278096   6.660480   6.267782 0.000000 0.000049 0.000459 
    2.556191   4.446574   6.267821 -0.000000 0.000119 -0.000001 
    2.556191   7.405425   8.360322 -0.000001 -0.000246 0.000125 
    3.834287   5.191847   8.360210 -0.000000 -0.000388 0.000333 
    3.834287   6.660480   6.267782 -0.000000 0.000049 0.000459 
    5.112382   4.446574   6.267821 0.000000 0.000119 -0.000001 
    5.112382   7.405425   8.360322 0.000001 -0.000245 0.000125 
    6.390478   5.191847   8.360210 0.000000 -0.000388 0.000334 
    6.390478   6.660480   6.267782 0.000000 0.000049 0.000459 
    7.668573   4.446574   6.267821 -0.000000 0.000119 -0.000001 
    7.668573   7.405425   8.360322 -0.000000 -0.000246 0.000125 
    8.946669   5.191847   8.360210 -0.000000 -0.000388 0.000333 
    8.946669   6.660480   6.267782 -0.000000 0.000049 0.000459 
