converted from raw with ene = -313.828391 
  1.0
 10.860000 0.000000 0.000000 
 0.000000 10.860000 0.000000 
 0.000000 0.000000 18.100000 
Cu Ni O 
90 0 0 
cartesian 
    -0.000000   0.000000   -0.002867 0.000000 -0.000000 0.000009 
    1.810000   1.810000   -0.002867 0.000000 -0.000000 0.000010 
    0.000000   1.810000   1.775153 0.000001 -0.000000 0.000185 
    1.810000   0.000000   1.775153 0.000001 -0.000001 0.000185 
    3.620000   0.000000   -0.002867 0.000000 -0.000000 0.000011 
    5.430000   1.810000   -0.002867 -0.000000 -0.000000 0.000010 
    3.620000   1.810000   1.775153 0.000000 -0.000000 0.000185 
    5.430000   0.000000   1.775153 -0.000001 -0.000001 0.000185 
    7.240000   0.000000   -0.002867 -0.000000 -0.000000 0.000010 
    9.050000   1.810000   -0.002867 -0.000000 -0.000000 0.000009 
    7.240000   1.810000   1.775153 -0.000001 -0.000000 0.000185 
    9.050000   0.000000   1.775153 -0.000000 -0.000001 0.000185 
    -0.000000   3.620000   -0.002867 0.000000 0.000000 0.000009 
    1.810000   5.430000   -0.002867 0.000000 0.000000 0.000010 
    -0.000000   5.430000   1.775153 0.000001 0.000001 0.000185 
    1.810000   3.620000   1.775153 0.000001 0.000001 0.000185 
    3.620000   3.620000   -0.002867 0.000000 0.000000 0.000010 
    5.430000   5.430000   -0.002867 -0.000000 0.000000 0.000011 
    3.620000   5.430000   1.775153 0.000000 0.000001 0.000186 
    5.430000   3.620000   1.775153 -0.000001 0.000001 0.000185 
    7.240000   3.620000   -0.002867 -0.000000 0.000000 0.000010 
    9.050000   5.430000   -0.002867 -0.000000 0.000000 0.000010 
    7.240000   5.430000   1.775153 -0.000001 0.000001 0.000185 
    9.050000   3.620000   1.775153 -0.000000 0.000001 0.000185 
    -0.000000   7.240000   -0.002867 0.000000 0.000000 0.000010 
    1.810000   9.050000   -0.002867 0.000000 -0.000000 0.000011 
    0.000000   9.050000   1.775153 0.000001 -0.000001 0.000185 
    1.810000   7.240000   1.775153 0.000001 0.000000 0.000186 
    3.620000   7.240000   -0.002867 0.000000 0.000000 0.000011 
    5.430000   9.050000   -0.002867 -0.000000 -0.000000 0.000011 
    3.620000   9.050000   1.775153 0.000000 -0.000001 0.000186 
    5.430000   7.240000   1.775153 -0.000001 0.000000 0.000186 
    7.240000   7.240000   -0.002867 -0.000000 0.000000 0.000011 
    9.050000   9.050000   -0.002867 -0.000000 -0.000000 0.000010 
    7.240000   9.050000   1.775153 -0.000001 -0.000001 0.000186 
    9.050000   7.240000   1.775153 -0.000000 0.000000 0.000185 
    -0.000000   0.000000   3.620000 0.000001 -0.000001 0.000000 
    1.810000   1.810000   3.620000 0.000001 -0.000000 0.000000 
    -0.000000   1.810000   5.464847 0.000001 -0.000000 -0.000187 
    1.810000   0.000000   5.464847 0.000001 -0.000001 -0.000187 
    3.620000   0.000000   3.620000 0.000000 -0.000001 0.000000 
    5.430000   1.810000   3.620000 -0.000001 -0.000000 0.000000 
    3.620000   1.810000   5.464847 0.000000 -0.000000 -0.000187 
    5.430000   0.000000   5.464847 -0.000001 -0.000001 -0.000187 
    7.240000   0.000000   3.620000 -0.000001 -0.000001 0.000000 
    9.050000   1.810000   3.620000 -0.000000 -0.000000 0.000000 
    7.240000   1.810000   5.464847 -0.000001 -0.000000 -0.000187 
    9.050000   0.000000   5.464847 -0.000000 -0.000001 -0.000187 
    -0.000000   3.620000   3.620000 0.000001 0.000001 0.000000 
    1.810000   5.430000   3.620000 0.000001 0.000001 0.000000 
    0.000000   5.430000   5.464847 0.000001 0.000001 -0.000187 
    1.810000   3.620000   5.464847 0.000001 0.000001 -0.000187 
    3.620000   3.620000   3.620000 0.000000 0.000001 0.000000 
    5.430000   5.430000   3.620000 -0.000001 0.000001 0.000000 
    3.620000   5.430000   5.464847 0.000000 0.000001 -0.000188 
    5.430000   3.620000   5.464847 -0.000001 0.000001 -0.000187 
    7.240000   3.620000   3.620000 -0.000001 0.000001 0.000000 
    9.050000   5.430000   3.620000 -0.000000 0.000001 0.000000 
    7.240000   5.430000   5.464847 -0.000001 0.000001 -0.000187 
    9.050000   3.620000   5.464847 -0.000000 0.000001 -0.000187 
    -0.000000   7.240000   3.620000 0.000001 0.000000 0.000000 
    1.810000   9.050000   3.620000 0.000001 -0.000001 0.000000 
    -0.000000   9.050000   5.464847 0.000001 -0.000001 -0.000187 
    1.810000   7.240000   5.464847 0.000001 0.000000 -0.000188 
    3.620000   7.240000   3.620000 0.000000 0.000000 0.000000 
    5.430000   9.050000   3.620000 -0.000001 -0.000001 0.000000 
    3.620000   9.050000   5.464847 0.000000 -0.000001 -0.000188 
    5.430000   7.240000   5.464847 -0.000001 0.000000 -0.000188 
    7.240000   7.240000   3.620000 -0.000001 0.000000 0.000000 
    9.050000   9.050000   3.620000 -0.000000 -0.000001 0.000000 
    7.240000   9.050000   5.464847 -0.000001 -0.000001 -0.000187 
    9.050000   7.240000   5.464847 -0.000000 0.000000 -0.000187 
    -0.000000   0.000000   7.242867 0.000000 -0.000000 -0.000008 
    1.810000   1.810000   7.242867 0.000000 -0.000000 -0.000008 
    3.620000   0.000000   7.242867 0.000000 -0.000000 -0.000009 
    5.430000   1.810000   7.242867 -0.000000 -0.000000 -0.000008 
    7.240000   0.000000   7.242867 -0.000000 -0.000000 -0.000008 
    9.050000   1.810000   7.242867 -0.000000 -0.000000 -0.000007 
    -0.000000   3.620000   7.242867 0.000000 0.000000 -0.000007 
    1.810000   5.430000   7.242867 0.000000 0.000000 -0.000009 
    3.620000   3.620000   7.242867 0.000000 0.000000 -0.000008 
    5.430000   5.430000   7.242867 -0.000000 0.000000 -0.000009 
    7.240000   3.620000   7.242867 -0.000000 0.000000 -0.000008 
    9.050000   5.430000   7.242867 -0.000000 0.000000 -0.000008 
    -0.000000   7.240000   7.242867 0.000000 0.000000 -0.000008 
    1.810000   9.050000   7.242867 0.000000 -0.000000 -0.000009 
    3.620000   7.240000   7.242867 0.000000 0.000000 -0.000010 
    5.430000   9.050000   7.242867 -0.000000 -0.000000 -0.000009 
    7.240000   7.240000   7.242867 -0.000000 0.000000 -0.000009 
    9.050000   9.050000   7.242867 -0.000000 -0.000000 -0.000008 
