converted from raw with ene = -291.814275 
  1.0
 10.845000 0.000000 0.000000 
 0.000000 10.224764 0.000000 
 0.000000 0.000000 17.893337 
Cu Ni O 
84 0 0 
cartesian 
    0.000000   0.000000   0.059272 -0.000000 -0.000000 0.000054 
    1.807500   1.278096   1.223604 -0.000000 0.000000 0.000094 
    3.615000   0.000000   0.059272 0.000000 -0.000000 0.000054 
    5.422500   1.278096   1.223604 0.000000 0.000000 0.000094 
    7.230000   0.000000   0.059272 -0.000000 -0.000000 0.000054 
    9.037500   1.278096   1.223604 0.000000 0.000000 0.000094 
    0.000000   2.556191   0.059272 -0.000000 0.000000 0.000054 
    1.807500   3.834287   1.223604 0.000000 -0.000000 0.000094 
    3.615000   2.556191   0.059272 0.000000 0.000000 0.000054 
    5.422500   3.834287   1.223604 0.000000 -0.000000 0.000094 
    7.230000   2.556191   0.059272 -0.000000 0.000000 0.000054 
    9.037500   3.834287   1.223604 0.000000 -0.000000 0.000094 
    0.000000   5.112382   0.059272 -0.000000 -0.000000 0.000054 
    1.807500   6.390478   1.223604 -0.000000 0.000000 0.000094 
    3.615000   5.112382   0.059272 0.000000 -0.000000 0.000054 
    5.422500   6.390478   1.223604 0.000000 0.000000 0.000094 
    7.230000   5.112382   0.059272 -0.000000 -0.000000 0.000054 
    9.037500   6.390478   1.223604 0.000000 0.000000 0.000094 
    0.000000   7.668573   0.059272 -0.000000 0.000000 0.000054 
    1.807500   8.946669   1.223604 0.000000 -0.000000 0.000094 
    3.615000   7.668573   0.059272 0.000000 0.000000 0.000054 
    5.422500   8.946669   1.223604 0.000000 -0.000000 0.000094 
    7.230000   7.668573   0.059272 -0.000000 0.000000 0.000054 
    9.037500   8.946669   1.223604 0.000000 -0.000000 0.000094 
    0.000000   0.000000   2.558020 -0.000000 0.000000 -0.000175 
    1.807500   1.278096   3.834514 0.000000 -0.000000 -0.000016 
    3.615000   0.000000   2.558020 -0.000000 0.000000 -0.000175 
    5.422500   1.278096   3.834514 -0.000000 -0.000000 -0.000016 
    7.230000   0.000000   2.558020 -0.000000 0.000000 -0.000175 
    9.037500   1.278096   3.834514 -0.000000 -0.000000 -0.000016 
    0.000000   2.556191   2.558020 -0.000000 -0.000000 -0.000175 
    1.807500   3.834287   3.834514 0.000000 0.000000 -0.000016 
    3.615000   2.556191   2.558020 -0.000000 -0.000000 -0.000175 
    5.422500   3.834287   3.834514 -0.000000 0.000000 -0.000016 
    7.230000   2.556191   2.558020 -0.000000 -0.000000 -0.000175 
    9.037500   3.834287   3.834514 -0.000000 -0.000000 -0.000016 
    0.000000   5.112382   2.558020 -0.000000 0.000000 -0.000175 
    1.807500   6.390478   3.834514 0.000000 -0.000000 -0.000016 
    3.615000   5.112382   2.558020 -0.000000 0.000000 -0.000175 
    5.422500   6.390478   3.834514 -0.000000 -0.000000 -0.000016 
    7.230000   5.112382   2.558020 -0.000000 0.000000 -0.000175 
    9.037500   6.390478   3.834514 -0.000000 -0.000000 -0.000016 
    0.000000   7.668573   2.558020 -0.000000 -0.000000 -0.000175 
    1.807500   8.946669   3.834514 0.000000 0.000000 -0.000016 
    3.615000   7.668573   2.558020 -0.000000 -0.000000 -0.000175 
    5.422500   8.946669   3.834514 -0.000000 0.000000 -0.000016 
    7.230000   7.668573   2.558020 -0.000000 -0.000000 -0.000175 
    9.037500   8.946669   3.834514 -0.000000 -0.000000 -0.000016 
    0.000000   0.000000   5.110603 -0.000000 0.000000 0.000182 
    1.807500   1.278096   6.445209 -0.000000 0.000000 -0.000082 
    3.615000   0.000000   5.110603 0.000000 0.000000 0.000182 
    5.422500   1.278096   6.445209 0.000000 0.000000 -0.000082 
    7.230000   0.000000   5.110603 -0.000000 0.000000 0.000181 
    9.037500   1.278096   6.445209 0.000000 0.000000 -0.000082 
    0.000000   2.556191   5.110603 -0.000000 -0.000000 0.000182 
    1.807500   3.834287   6.445209 -0.000000 0.000000 -0.000082 
    3.615000   2.556191   5.110603 0.000000 -0.000000 0.000182 
    5.422500   3.834287   6.445209 0.000000 -0.000000 -0.000082 
    7.230000   2.556191   5.110603 -0.000000 -0.000000 0.000182 
    9.037500   3.834287   6.445209 0.000000 -0.000000 -0.000082 
    0.000000   5.112382   5.110603 -0.000000 0.000000 0.000182 
    1.807500   6.390478   6.445209 -0.000000 0.000000 -0.000082 
    3.615000   5.112382   5.110603 0.000000 0.000000 0.000182 
    5.422500   6.390478   6.445209 0.000000 0.000000 -0.000082 
    7.230000   5.112382   5.110603 -0.000000 0.000000 0.000181 
    9.037500   6.390478   6.445209 0.000000 0.000000 -0.000082 
    0.000000   7.668573   5.110603 -0.000000 -0.000000 0.000182 
    1.807500   8.946669   6.445209 -0.000000 -0.000000 -0.000082 
    3.615000   7.668573   5.110603 0.000000 -0.000000 0.000182 
    5.422500   8.946669   6.445209 0.000000 -0.000000 -0.000082 
    7.230000   7.668573   5.110603 -0.000000 -0.000000 0.000182 
    9.037500   8.946669   6.445209 0.000000 -0.000000 -0.000082 
    0.000000   0.000000   7.608783 -0.000000 -0.000000 -0.000057 
    3.615000   0.000000   7.608783 0.000000 -0.000000 -0.000057 
    7.230000   0.000000   7.608783 -0.000000 -0.000000 -0.000057 
    0.000000   2.556191   7.608783 -0.000000 0.000000 -0.000057 
    3.615000   2.556191   7.608783 0.000000 0.000000 -0.000057 
    7.230000   2.556191   7.608783 -0.000000 -0.000000 -0.000057 
    0.000000   5.112382   7.608783 -0.000000 -0.000000 -0.000057 
    3.615000   5.112382   7.608783 0.000000 -0.000000 -0.000057 
    7.230000   5.112382   7.608783 -0.000000 -0.000000 -0.000057 
    0.000000   7.668573   7.608783 -0.000000 -0.000000 -0.000057 
    3.615000   7.668573   7.608783 0.000000 -0.000000 -0.000057 
    7.230000   7.668573   7.608783 -0.000000 -0.000000 -0.000057 
